# Solution for model r5_t27_m5_5 Batch Number: 5
# Finished Task: 26 / 27
# Makespan: 575.0, Total Distance: 792.0, Total Time: 1.9436
# R O S F Batch
0 0 11 0.0 0.0 -1
1 1 6 0.0 0.0 -1
2 2 20 0.0 0.0 -1
3 3 19 0.0 0.0 -1
4 4 29 0.0 0.0 -1
5 0 26 171.0 199.0 0
6 1 23 288.0 312.0 0
7 3 31 162.0 192.0 0
8 3 9 328.0 356.0 1
9 3 17 392.0 430.0 1
10 0 22 336.0 359.0 0
11 0 5 108.0 133.0 0
12 2 30 482.0 519.0 2
13 4 -1 555.0 575.0 4
14 -1 -1 -1.0 -1.0 4
15 4 18 398.0 418.0 3
16 1 24 418.0 442.0 3
17 3 -1 506.0 540.0 2
18 4 13 481.0 509.0 3
19 3 7 121.0 148.0 0
20 2 27 385.0 417.0 0
21 0 -1 510.0 543.0 4
22 0 21 401.0 422.0 0
23 1 16 342.0 376.0 1
24 1 -1 477.0 516.0 3
25 4 28 167.0 199.0 0
26 0 10 260.0 286.0 0
27 2 12 428.0 463.0 2
28 4 15 351.0 374.0 0
29 4 25 135.0 156.0 0
30 2 -1 538.0 568.0 3
31 3 8 294.0 314.0 1
